NAME : u1060.opt.tour
COMMENT : Optimum tour for u1060.tsp (224094)
TYPE : TSP
DIMENSION : 1060
TOUR_SECTION
695
694
693
692
691
702
703
705
704
690
689
688
687
686
685
684
683
671
608
609
607
606
604
605
603
602
601
437
611
610
612
613
614
615
616
617
618
624
619
620
621
622
623
625
626
628
627
629
630
631
632
633
634
635
636
637
638
639
640
646
647
645
649
648
650
651
652
653
654
659
655
657
658
663
660
661
644
641
642
669
643
662
664
668
670
667
665
666
656
673
672
674
675
682
681
680
676
677
679
678
716
717
718
719
715
714
713
712
711
710
709
720
721
722
708
707
706
701
699
700
723
724
725
726
727
728
729
731
730
735
734
732
733
739
740
741
742
743
744
745
746
747
748
749
538
536
537
543
544
542
541
540
549
548
547
546
545
738
737
575
576
736
578
577
579
580
581
585
574
573
572
568
567
566
565
564
563
562
561
560
558
557
556
460
461
555
554
553
552
551
550
529
530
531
533
539
534
535
750
751
752
753
754
755
756
757
758
759
760
761
762
763
764
765
766
767
769
770
768
777
778
776
771
772
773
774
775
779
780
781
784
785
786
783
782
788
787
789
790
791
792
793
794
795
796
798
797
799
800
801
802
803
804
805
343
342
344
347
348
346
345
328
329
330
339
340
341
338
337
336
335
333
331
332
334
325
323
322
324
813
812
811
810
807
806
808
809
825
826
831
830
832
829
828
827
833
834
824
823
822
835
821
818
814
815
817
816
317
316
307
308
315
313
314
248
247
236
235
250
251
249
252
253
255
254
256
257
258
263
262
259
260
261
234
233
232
224
227
226
225
856
860
857
855
851
850
849
848
847
852
854
853
229
228
230
231
237
238
239
240
246
245
244
243
242
241
840
842
843
844
846
845
841
839
819
820
837
836
838
939
938
937
936
935
940
941
942
944
943
967
968
969
966
948
945
946
947
934
933
932
929
931
930
928
953
952
954
951
955
956
950
949
964
965
963
957
960
962
961
959
958
80
79
78
82
81
77
76
75
74
73
72
71
70
69
68
67
993
992
991
990
986
984
980
979
978
977
976
975
971
970
972
973
974
982
981
983
985
987
988
989
994
995
996
997
998
999
1002
1000
1001
1014
1015
1013
1012
1011
1009
1010
1022
1007
1008
1003
1005
1004
1006
1023
1024
1025
1026
1027
1021
1020
1017
1016
1018
1019
1028
1030
1029
64
65
66
63
62
60
61
55
59
58
56
57
1033
1032
1031
1037
1038
1036
1035
1034
37
1039
1040
1041
1045
1046
1048
1049
1047
1042
1044
1043
1050
1051
1052
1055
1056
1057
1058
1059
1060
4
1
3
2
5
6
7
8
9
122
123
15
16
14
18
17
19
20
13
12
11
10
1053
1054
31
30
32
29
28
27
26
21
22
23
24
25
33
34
36
35
41
42
40
38
39
54
53
52
51
43
44
45
50
49
46
48
47
83
89
90
91
92
88
87
86
85
84
100
101
102
99
94
93
892
95
96
97
98
108
103
104
107
106
105
119
118
121
120
116
117
111
110
109
115
113
112
114
888
883
889
890
891
893
882
881
880
874
873
872
871
869
870
875
876
877
878
879
885
887
886
884
132
131
130
128
129
124
125
126
127
137
136
135
134
133
138
139
140
141
144
142
143
145
146
147
148
149
150
151
152
153
154
155
157
158
156
165
166
160
159
161
162
163
164
167
168
169
170
171
172
173
174
175
176
177
178
179
180
181
182
183
184
185
186
187
188
189
190
191
192
193
194
195
199
204
205
206
210
211
212
213
214
216
215
867
868
866
911
910
909
908
912
913
914
907
905
904
906
903
902
900
901
895
894
896
897
898
899
927
926
925
924
923
922
920
918
917
916
915
919
862
861
921
858
859
222
223
221
219
220
864
863
865
218
217
209
208
207
203
202
201
200
198
197
196
264
265
266
267
268
272
271
270
273
269
277
278
280
279
390
389
276
275
274
391
392
393
394
395
396
397
405
404
406
388
387
386
385
384
383
382
381
380
379
378
377
376
372
370
371
373
375
374
281
282
283
284
286
285
289
288
287
311
310
312
309
304
303
301
295
294
293
292
291
290
296
297
299
298
300
302
305
306
318
319
320
321
326
327
351
350
352
353
354
349
355
356
357
358
362
361
360
359
363
364
365
366
367
369
368
490
489
488
487
486
485
484
492
491
493
494
495
496
497
503
498
502
501
500
499
507
508
509
510
511
506
513
512
514
505
504
518
519
520
516
515
517
521
522
523
524
525
532
526
527
528
479
481
480
482
483
474
473
466
470
471
472
476
475
478
477
469
468
467
465
464
463
462
459
456
457
458
450
449
447
448
442
441
427
426
425
424
423
422
420
421
412
411
410
407
408
409
413
415
414
419
418
417
416
402
401
403
400
399
398
429
428
430
431
432
433
435
434
436
438
439
440
443
444
445
600
599
446
451
452
598
597
596
594
593
592
595
453
454
455
559
571
570
569
589
590
591
587
588
586
584
583
582
698
697
696
-1
EOF